%block lattice_abc
5.645000   5.645000   5.645000
90 90 90
%endblock lattice_abc

%block positions_frac
Co 0.250  0.250  0.250
Co 0.250  0.750  0.750
Co 0.750  0.250  0.750
Co 0.750  0.750  0.250
Co 0.250  0.750  0.250
Co 0.250  0.250  0.750
Co 0.750  0.750  0.750
Co 0.750  0.250  0.250
Ag 0.000  0.000  0.000
Mn 0.000  0.500  0.500
Mn 0.500  0.000  0.500
Mn 0.500  0.500  0.000
Si 0.500  0.500  0.500
Si 0.500  0.000  0.000
Si 0.000  0.500  0.000
Si 0.000  0.000  0.500
%endblock positions_frac

kpoints_mp_spacing 0.04
!kpoints_mp_spacing 0.05

!kpoint_mp_grid 3 3 2

symmetry_generate

snap_to_symmetry

fix_all_cell true
fix_all_ions true

! Don't use Hubbard U this time
%block hubbard_u
Co d: 2.1
Mn d: 2.1
%endblock hubbard_u

%block species_pot
Co Co_OTF.usp
Mn Mn_OTF.usp
Si Si_OTF.usp
Ag Ag_OTF.usp
%endblock species_pot
